30
1 0 29
2 1 29
3 0 29
3 2 2
4 0 16
4 2 31
5 0 29
5 1 36
5 2 27
5 4 15
6 0 30
6 1 6
6 2 16
6 3 21
6 4 17
7 0 37
7 1 27
7 3 10
7 4 5
7 5 11
7 6 3
8 0 23
8 1 6
8 2 27
8 3 19
8 4 2
8 5 36
8 6 7
8 7 34
9 0 2
9 1 12
9 2 30
9 3 8
9 4 26
9 5 9
9 7 34
9 8 14
10 0 15
10 1 9
10 2 33
10 3 28
10 4 21
10 5 19
10 6 37
10 7 21
10 8 10
10 9 16
11 0 35
11 1 13
11 3 31
11 4 29
11 5 6
11 6 40
11 7 17
11 8 15
11 9 32
11 10 39
12 0 36
12 1 13
12 2 34
12 3 7
12 4 11
12 5 27
12 6 35
12 7 13
12 9 6
12 10 10
12 11 35
13 0 35
13 1 23
13 2 11
13 3 11
13 4 34
13 5 2
13 6 20
13 7 15
13 8 8
13 9 23
13 10 2
13 11 22
13 12 9
14 0 39
14 1 1
14 2 2
14 3 40
14 4 12
14 6 14
14 8 22
14 9 25
14 10 39
14 11 5
14 12 16
14 13 32
15 1 4
15 3 1
15 5 5
15 6 3
15 7 39
15 8 13
15 9 20
15 10 10
15 11 5
15 12 20
15 13 32
15 14 9
16 1 14
16 2 4
16 3 18
16 5 3
16 6 10
16 7 32
16 9 30
16 10 1
16 11 3
16 12 1
16 13 29
16 14 1
16 15 33
17 0 4
17 1 18
17 3 35
17 4 27
17 7 15
17 8 32
17 9 34
17 10 3
17 11 3
17 12 35
17 15 22
18 0 32
18 1 31
18 2 6
18 3 36
18 4 17
18 5 37
18 6 34
18 7 10
18 8 17
18 11 3
18 12 23
18 13 16
18 14 31
18 15 15
19 0 20
19 1 38
19 2 2
19 3 14
19 4 28
19 5 12
19 6 20
19 7 11
19 10 2
19 11 29
19 12 17
19 13 8
19 14 23
19 15 8
19 16 22
19 17 6
20 4 19
20 5 14
20 7 24
20 8 6
20 10 1
20 12 38
20 13 24
20 14 37
20 15 4
20 16 28
20 19 34
21 0 5
21 1 1
21 2 32
21 4 1
21 5 20
21 6 16
21 8 8
21 9 21
21 10 4
21 11 36
21 12 40
21 14 16
21 15 11
21 16 28
21 17 3
21 18 6
21 19 15
21 20 22
22 0 13
22 3 31
22 4 4
22 5 34
22 6 4
22 7 38
22 8 35
22 9 12
22 10 15
22 11 33
22 13 37
22 14 9
22 15 30
22 16 2
22 17 24
22 18 9
22 19 2
22 20 35
22 21 30
23 0 36
23 1 28
23 2 2
23 3 5
23 5 13
23 6 16
23 8 14
23 9 39
23 10 15
23 11 4
23 12 9
23 13 28
23 15 3
23 16 35
23 17 34
23 18 36
23 19 34
23 20 21
23 21 16
23 22 24
24 0 12
24 1 2
24 2 35
24 3 6
24 4 34
24 6 2
24 7 1
24 8 6
24 9 36
24 10 29
24 12 18
24 13 17
24 14 20
24 15 23
24 17 6
24 18 37
24 19 6
24 20 37
24 21 31
24 22 34
24 23 32
25 0 33
25 1 24
25 2 13
25 3 17
25 4 24
25 6 16
25 7 38
25 8 23
25 9 8
25 10 17
25 11 21
25 12 24
25 13 8
25 14 25
25 15 4
25 16 11
25 17 19
25 18 2
25 19 20
25 21 38
25 22 18
25 23 34
25 24 8
26 0 30
26 1 11
26 2 16
26 3 26
26 4 14
26 5 13
26 6 4
26 7 26
26 8 14
26 10 21
26 11 1
26 12 22
26 15 18
26 16 15
26 17 3
26 18 33
26 19 15
26 20 5
26 21 7
26 23 6
26 25 33
27 0 4
27 1 20
27 2 12
27 3 26
27 4 11
27 5 13
27 6 10
27 7 37
27 8 19
27 10 39
27 11 11
27 12 40
27 13 1
27 14 19
27 15 20
27 16 21
27 17 7
27 20 16
27 21 30
27 22 27
27 25 28
27 26 31
28 0 30
28 1 14
28 2 7
28 3 18
28 4 14
28 6 38
28 8 28
28 9 10
28 10 31
28 11 18
28 12 21
28 13 8
28 14 5
28 15 21
28 16 26
28 17 4
28 20 6
28 21 21
28 24 32
28 27 26
29 0 16
29 1 33
29 2 20
29 3 23
29 4 24
29 5 40
29 8 5
29 9 17
29 10 36
29 11 7
29 12 37
29 13 19
29 14 2
29 15 24
29 16 11
29 17 32
29 18 4
29 19 7
29 20 26
29 21 18
29 22 31
29 23 28
29 24 18
29 26 23
29 27 23
29 28 25
